65
1 0 3
3 1 10
3 2 4
4 1 7
6 0 10
6 3 7
6 4 5
7 2 7
7 3 7
7 6 8
8 0 2
8 1 5
8 3 2
8 4 5
8 5 9
8 6 4
9 0 2
9 1 9
9 2 2
9 3 9
9 4 1
9 6 7
9 7 6
9 8 6
10 3 2
10 4 10
10 8 2
10 9 7
11 2 9
11 4 6
11 5 6
11 7 7
11 8 2
12 0 6
12 3 10
12 5 4
12 7 8
12 9 7
13 0 5
13 2 1
13 3 6
13 4 2
13 6 4
13 7 3
13 10 7
13 11 2
13 12 9
14 1 10
14 2 10
14 3 2
14 4 7
14 8 8
14 11 7
14 12 5
15 3 9
15 6 3
15 7 6
15 8 9
15 10 2
15 11 5
15 12 8
15 13 7
15 14 6
16 1 2
16 8 8
16 9 1
16 10 8
16 12 6
16 14 8
17 0 6
17 1 10
17 2 1
17 3 3
17 4 8
17 6 2
17 7 7
17 8 6
17 9 9
17 10 9
17 11 3
17 13 7
17 16 10
18 0 3
18 1 5
18 2 10
18 3 10
18 4 1
18 6 4
18 7 10
18 9 9
18 10 5
18 12 2
18 17 7
19 1 2
19 2 5
19 3 4
19 4 10
19 7 6
19 8 8
19 11 1
19 12 10
19 13 10
20 5 4
20 6 6
20 9 9
20 10 4
20 15 7
20 16 1
20 17 8
21 2 4
21 3 9
21 4 4
21 5 6
21 6 4
21 7 2
21 10 10
21 11 9
21 14 3
21 15 3
21 18 4
21 19 1
22 0 4
22 4 10
22 8 8
22 10 3
22 11 1
22 12 10
22 13 6
22 14 10
22 19 3
23 0 7
23 1 9
23 3 9
23 4 8
23 6 9
23 7 7
23 10 9
23 11 2
23 12 8
23 14 9
23 17 4
23 20 10
24 3 9
24 6 2
24 7 2
24 11 9
24 12 1
24 16 7
24 19 2
24 21 5
24 22 2
24 23 7
25 0 3
25 2 9
25 3 8
25 4 3
25 10 8
25 13 4
25 14 8
25 17 2
25 18 4
25 22 7
26 0 1
26 6 3
26 7 4
26 11 6
26 14 7
26 15 9
26 16 8
26 17 10
26 18 5
26 21 3
26 23 7
26 24 4
26 25 7
27 0 6
27 3 9
27 5 4
27 7 9
27 8 3
27 9 3
27 12 3
27 13 4
27 14 9
27 15 9
27 17 2
27 19 3
27 20 3
27 21 4
27 22 3
27 23 4
27 25 3
28 1 10
28 2 9
28 5 7
28 9 6
28 12 2
28 14 8
28 16 10
28 18 5
28 19 5
28 20 10
28 21 7
28 22 5
28 23 10
28 25 5
29 0 7
29 1 8
29 4 9
29 5 3
29 6 6
29 14 10
29 15 9
29 16 2
29 18 10
29 19 10
29 20 3
29 21 1
29 22 6
29 23 9
29 24 6
29 26 9
29 27 1
30 1 5
30 6 1
30 7 3
30 8 2
30 9 1
30 10 4
30 13 6
30 15 9
30 18 1
30 19 9
30 20 3
30 23 10
30 24 10
31 2 7
31 3 8
31 4 3
31 5 8
31 7 7
31 9 1
31 11 10
31 15 3
31 17 5
31 19 6
31 21 10
31 22 2
31 25 10
31 26 2
31 27 5
31 28 4
31 29 9
31 30 5
32 0 4
32 4 3
32 5 3
32 6 8
32 7 7
32 10 4
32 11 7
32 13 9
32 15 5
32 16 2
32 20 8
32 21 9
32 26 6
32 27 1
32 28 10
32 29 10
32 30 6
33 0 4
33 2 7
33 6 10
33 8 10
33 13 4
33 15 1
33 19 1
33 23 7
33 28 9
33 29 2
33 32 2
34 0 1
34 3 3
34 7 7
34 9 9
34 10 4
34 11 3
34 12 10
34 14 2
34 16 2
34 22 9
34 23 3
34 25 3
34 27 1
34 28 7
34 32 10
34 33 6
35 1 2
35 4 1
35 6 8
35 7 10
35 8 5
35 9 5
35 11 10
35 12 9
35 14 5
35 15 8
35 16 4
35 17 9
35 21 8
35 23 3
35 26 9
35 28 2
35 34 4
36 0 9
36 9 6
36 10 10
36 11 6
36 13 10
36 18 10
36 22 2
36 23 2
36 24 8
36 25 5
36 30 4
36 35 4
37 0 7
37 1 1
37 2 5
37 3 2
37 5 8
37 6 4
37 7 4
37 8 7
37 9 2
37 10 8
37 11 4
37 12 4
37 14 7
37 19 8
37 27 9
37 29 7
37 30 9
37 31 8
37 32 8
37 34 10
37 36 6
38 0 4
38 2 6
38 3 1
38 4 4
38 6 9
38 7 2
38 8 5
38 10 7
38 11 10
38 14 2
38 17 10
38 18 6
38 20 3
38 21 5
38 22 7
38 23 10
38 24 1
38 25 2
38 26 4
38 27 2
38 32 2
38 34 5
39 2 4
39 4 10
39 5 6
39 9 2
39 10 8
39 11 5
39 12 5
39 15 6
39 17 5
39 18 2
39 19 5
39 20 3
39 21 4
39 24 8
39 25 3
39 26 2
39 27 10
39 28 1
39 29 5
39 31 4
39 32 7
39 33 10
39 35 10
39 37 3
39 38 3
40 1 1
40 2 2
40 4 7
40 10 2
40 11 10
40 17 5
40 20 3
40 22 6
40 23 5
40 27 9
40 28 1
40 29 7
40 33 1
40 38 7
40 39 8
41 0 1
41 1 5
41 2 8
41 3 9
41 4 6
41 5 6
41 7 4
41 8 7
41 9 4
41 10 6
41 12 3
41 15 9
41 16 4
41 17 2
41 18 10
41 19 9
41 20 6
41 24 6
41 26 1
41 27 3
41 28 8
41 29 5
41 31 3
41 33 7
41 35 2
41 36 10
41 39 6
41 40 6
42 0 3
42 1 8
42 3 1
42 4 6
42 9 5
42 13 8
42 15 3
42 18 7
42 19 3
42 21 8
42 25 9
42 26 2
42 27 5
42 28 5
42 29 9
42 31 2
42 32 9
42 35 6
42 38 9
42 40 5
43 1 2
43 2 1
43 4 8
43 7 7
43 8 3
43 12 5
43 14 1
43 15 4
43 16 2
43 18 9
43 19 10
43 21 4
43 26 5
43 28 9
43 31 1
43 36 1
43 37 4
43 40 3
43 42 7
44 0 8
44 1 7
44 5 5
44 6 5
44 7 10
44 8 8
44 10 8
44 13 8
44 14 6
44 16 5
44 17 5
44 18 3
44 19 8
44 23 9
44 26 10
44 27 5
44 28 5
44 29 5
44 30 1
44 34 8
44 35 8
44 38 5
44 39 8
44 41 4
44 42 4
44 43 5
45 0 2
45 1 6
45 2 4
45 6 1
45 7 6
45 9 9
45 11 7
45 12 6
45 16 4
45 17 4
45 18 8
45 20 9
45 21 7
45 25 1
45 27 1
45 30 8
45 32 10
45 33 7
45 34 4
45 38 4
45 39 5
45 41 4
45 42 6
45 44 7
46 2 10
46 5 2
46 6 3
46 9 10
46 11 2
46 13 2
46 14 3
46 15 10
46 16 10
46 17 2
46 18 7
46 19 6
46 20 10
46 21 2
46 23 2
46 25 10
46 26 7
46 28 2
46 32 9
46 34 9
46 35 3
46 38 8
46 39 7
46 40 8
46 41 1
46 42 3
47 2 2
47 3 5
47 4 5
47 6 9
47 7 2
47 8 9
47 9 9
47 10 1
47 12 9
47 13 3
47 15 1
47 19 1
47 20 6
47 21 7
47 22 8
47 23 4
47 29 5
47 30 8
47 31 4
47 33 6
47 35 3
47 39 2
47 40 8
47 46 1
48 2 9
48 3 8
48 5 1
48 6 10
48 7 2
48 8 7
48 11 6
48 12 4
48 15 6
48 20 5
48 21 6
48 23 8
48 24 4
48 26 9
48 27 5
48 29 5
48 30 4
48 32 7
48 34 7
48 35 6
48 36 8
48 37 8
48 40 9
48 44 9
48 45 7
48 47 8
49 1 1
49 2 9
49 3 8
49 4 7
49 5 10
49 6 9
49 7 4
49 8 3
49 11 8
49 13 6
49 14 5
49 15 8
49 18 2
49 19 1
49 21 2
49 28 9
49 29 9
49 30 9
49 31 3
49 32 8
49 33 8
49 34 1
49 36 3
49 38 5
49 39 7
49 41 4
49 42 1
49 43 10
49 44 6
49 46 2
49 47 4
50 0 6
50 2 10
50 3 5
50 5 10
50 6 8
50 8 3
50 9 4
50 12 6
50 15 8
50 16 5
50 17 7
50 19 1
50 20 8
50 21 3
50 23 4
50 25 8
50 28 4
50 31 8
50 32 2
50 35 7
50 37 5
50 39 4
50 40 4
50 41 2
50 42 10
50 46 10
50 47 5
50 48 6
50 49 3
51 0 7
51 1 8
51 2 8
51 5 1
51 9 5
51 10 9
51 13 7
51 15 8
51 16 10
51 17 1
51 19 7
51 20 5
51 22 2
51 23 2
51 24 2
51 25 7
51 27 8
51 28 6
51 29 5
51 30 3
51 31 10
51 34 6
51 35 4
51 36 3
51 37 6
51 39 8
51 40 3
51 41 4
51 43 10
51 44 10
51 45 5
51 49 9
51 50 9
52 3 6
52 6 10
52 13 6
52 14 7
52 16 7
52 20 5
52 22 6
52 24 3
52 25 6
52 26 3
52 32 4
52 35 1
52 40 3
52 43 4
52 44 3
52 45 9
52 47 5
52 49 8
52 51 5
53 2 6
53 5 1
53 8 6
53 9 5
53 11 3
53 13 5
53 14 10
53 15 8
53 20 9
53 21 7
53 25 9
53 28 2
53 32 6
53 33 7
53 36 10
53 40 6
53 42 5
53 43 7
53 44 5
53 46 5
53 49 5
53 51 5
53 52 2
54 0 10
54 1 2
54 6 9
54 7 10
54 8 5
54 9 2
54 10 8
54 15 5
54 17 3
54 18 4
54 19 9
54 20 9
54 22 3
54 23 2
54 24 5
54 27 2
54 29 4
54 32 7
54 34 3
54 35 4
54 36 2
54 38 4
54 40 9
54 43 1
54 48 4
54 52 10
54 53 8
55 8 7
55 10 1
55 12 8
55 14 2
55 15 3
55 18 3
55 21 10
55 27 7
55 29 8
55 30 9
55 31 8
55 34 10
55 35 1
55 37 9
55 41 5
55 42 6
55 47 4
55 48 4
55 50 3
55 52 6
55 53 7
56 1 9
56 2 1
56 3 7
56 8 7
56 10 7
56 11 8
56 14 4
56 16 10
56 22 2
56 23 3
56 25 8
56 26 2
56 28 1
56 31 4
56 34 7
56 39 7
56 40 3
56 42 1
56 45 3
56 46 6
56 47 4
56 48 8
56 49 10
56 50 1
56 53 3
56 55 2
57 0 8
57 2 4
57 3 9
57 10 4
57 12 4
57 14 6
57 15 2
57 17 8
57 18 9
57 19 1
57 20 9
57 21 9
57 26 2
57 27 3
57 30 4
57 34 6
57 35 4
57 38 4
57 41 4
57 47 10
57 48 3
57 52 8
57 54 9
58 1 6
58 3 8
58 5 8
58 9 3
58 10 6
58 12 5
58 13 4
58 17 6
58 18 3
58 19 8
58 22 10
58 23 8
58 24 8
58 26 1
58 32 6
58 33 9
58 34 7
58 35 6
58 37 1
58 38 4
58 40 6
58 41 9
58 44 10
58 47 1
58 53 4
58 55 10
58 56 4
59 0 9
59 1 7
59 2 6
59 3 7
59 4 4
59 5 5
59 7 9
59 8 8
59 11 9
59 12 2
59 13 4
59 16 10
59 18 6
59 19 4
59 24 3
59 26 4
59 27 4
59 28 2
59 29 9
59 30 10
59 31 7
59 32 1
59 34 10
59 36 6
59 37 8
59 41 8
59 43 4
59 44 6
59 45 10
59 47 8
59 52 6
59 54 8
59 57 1
60 0 8
60 1 5
60 2 10
60 3 8
60 4 2
60 5 7
60 6 9
60 7 5
60 8 7
60 13 7
60 16 9
60 17 7
60 20 3
60 21 7
60 22 4
60 23 9
60 24 7
60 25 9
60 30 9
60 31 10
60 32 3
60 34 7
60 35 4
60 36 2
60 37 10
60 39 9
60 41 5
60 42 8
60 43 3
60 44 7
60 48 6
60 51 4
60 53 10
60 56 7
60 57 4
61 0 2
61 1 10
61 2 1
61 4 3
61 5 1
61 6 7
61 7 3
61 9 6
61 10 5
61 15 10
61 29 4
61 31 9
61 33 2
61 34 2
61 35 2
61 37 3
61 39 7
61 40 4
61 41 8
61 43 6
61 45 8
61 46 10
61 52 3
61 53 6
61 54 9
61 57 1
61 59 4
62 1 8
62 5 5
62 7 2
62 8 10
62 9 3
62 11 3
62 12 4
62 15 6
62 19 7
62 20 6
62 21 9
62 22 5
62 23 2
62 26 5
62 27 10
62 29 1
62 32 6
62 35 4
62 36 2
62 37 5
62 44 5
62 45 7
62 47 6
62 49 10
62 54 1
62 56 6
62 60 1
63 0 5
63 3 10
63 4 8
63 5 9
63 6 9
63 7 4
63 9 9
63 10 4
63 11 8
63 16 4
63 17 10
63 20 3
63 21 7
63 22 9
63 25 7
63 26 9
63 27 1
63 30 1
63 32 7
63 35 1
63 37 1
63 38 2
63 39 8
63 40 2
63 42 3
63 43 4
63 46 9
63 50 2
63 51 4
63 54 8
63 55 8
63 57 3
63 59 10
63 62 5
64 1 4
64 2 1
64 6 1
64 11 9
64 12 9
64 14 7
64 19 7
64 20 2
64 22 9
64 25 1
64 27 8
64 31 6
64 32 3
64 34 1
64 35 4
64 37 5
64 39 6
64 40 7
64 41 3
64 43 3
64 44 6
64 45 1
64 47 1
64 48 1
64 53 9
64 54 2
64 55 7
64 61 3
64 63 4
